
Gurobi 6.5.2 (linux64) logging started Wed Sep 14 14:58:48 2016

Optimize a model with 21 rows, 33 columns and 67 nonzeros
Coefficient statistics:
  Matrix range    [1e+00, 2e+00]
  Objective range [1e+00, 1e+02]
  Bounds range    [1e+00, 1e+00]
  RHS range       [1e+00, 1e+00]
Found heuristic solution: objective 584
Presolve removed 11 rows and 10 columns
Presolve time: 0.00s
Presolved: 10 rows, 23 columns, 46 nonzeros
Variable types: 0 continuous, 23 integer (23 binary)

Root relaxation: objective 4.180000e+02, 9 iterations, 0.00 seconds

    Nodes    |    Current Node    |     Objective Bounds      |     Work
 Expl Unexpl |  Obj  Depth IntInf | Incumbent    BestBd   Gap | It/Node Time

     0     0  441.50000    0    6  584.00000  441.50000  24.4%     -    0s
H    0     0                     489.0000000  441.50000  9.71%     -    0s
     0     0  442.66667    0   10  489.00000  442.66667  9.48%     -    0s
H    0     0                     455.0000000  442.66667  2.71%     -    0s
     0     0  446.00000    0    8  455.00000  446.00000  1.98%     -    0s
     0     0  447.50000    0    6  455.00000  447.50000  1.65%     -    0s
*    0     0               0     450.0000000  450.00000  0.00%     -    0s

Cutting planes:
  Gomory: 1
  MIR: 3
  Lazy constraints: 1

Explored 0 nodes (23 simplex iterations) in 0.00 seconds
Thread count was 8 (of 8 available processors)

Optimal solution found (tolerance 1.00e-04)
Best objective 4.500000000000e+02, best bound 4.500000000000e+02, gap 0.0%
